#**************************************************************************************
#*                    Generated by cif2cell 1.1.5 2014-07-05 11:52                    *
#*   T. Bjorkman, Comp. Phys. Commun. 182, 1183-1186 (2011). Please cite generously.  *
#*                                                                                    *
#*                 Data obtained from COD. Reference number : 9004097                 *
#*                               Al F6 Na3   (Cryolite)                               *
#* Hawthorne, F. C. and Ferguson, R. B., The Canadian Mineralogist 13, 377-382 (1975) *
#**************************************************************************************
# Structural parameters
acell    3*10.2090562826  

rprim    1.000000000000000   0.000000000000000   0.000000000000000 
         0.000000000000000   1.035817414482452   0.000000000000000 
        -0.006966167623310   0.000000000000000   1.435715367131358 
       
natom    20  
ntypat   3  
typat    1 1 2 2 2 2 2 2 3 3 3 3 3 3 3 3 3 3 3 3  
znucl    13 11 9  
xred     0.000000000000000   0.000000000000000   0.000000000000000 
         0.500000000000000   0.500000000000000   0.500000000000000 
         0.000000000000000   0.000000000000000   0.500000000000000 
         0.500000000000000   0.500000000000000   0.000000000000000 
         0.513300000000000   0.948100000000000   0.247400000000000 
         0.486700000000000   0.051900000000000   0.752600000000000 
         0.013300000000000   0.551900000000000   0.747400000000000 
         0.986700000000000   0.448100000000000   0.252600000000000 
         0.102600000000000   0.045500000000000   0.219400000000000 
         0.897400000000000   0.954500000000000   0.780600000000000 
         0.602600000000000   0.454500000000000   0.719400000000000 
         0.397400000000000   0.545500000000000   0.280600000000000 
         0.726800000000000   0.173700000000000   0.046200000000000 
         0.273200000000000   0.826300000000000   0.953800000000000 
         0.226800000000000   0.326300000000000   0.546200000000000 
         0.773200000000000   0.673700000000000   0.453800000000000 
         0.163400000000000   0.269000000000000   0.937000000000000 
         0.836600000000000   0.731000000000000   0.063000000000000 
         0.663400000000000   0.231000000000000   0.437000000000000 
         0.336600000000000   0.769000000000000   0.563000000000000 
      
