#************************************************************************************
#*                   Generated by cif2cell 1.1.5 2014-07-05 13:25                   *
#*  T. Bjorkman, Comp. Phys. Commun. 182, 1183-1186 (2011). Please cite generously. *
#*                                                                                  *
#*                Data obtained from COD. Reference number : 9008856                *
#*                                   C Si   (SiC)                                   *
#*              Wyckoff, R. W. G., Crystal Structures 1, 85-237 (1963)              *
#************************************************************************************

%BLOCK LATTICE_CART
ang    # angstrom units
   2.174000000000000   2.174000000000000   0.000000000000000
   2.174000000000000   0.000000000000000   2.174000000000000
   0.000000000000000   2.174000000000000   2.174000000000000
%ENDBLOCK LATTICE_CART

%BLOCK POSITIONS_FRAC
Si   0.000000000000000   0.000000000000000   0.000000000000000 
C    0.250000000000000   0.250000000000000   0.250000000000000 
%ENDBLOCK POSITIONS_FRAC

# Commented out pseudopotential block for easy editing
#%BLOCK SPECIES_POT
# Si  Si_00.usp
# C   C_00.usp
#%ENDBLOCK SPECIES_POT

%BLOCK SYMMETRY_OPS
# Symm. op. 1
  1.000000000000000   0.000000000000000   0.000000000000000 
  0.000000000000000   1.000000000000000   0.000000000000000 
  0.000000000000000   0.000000000000000   1.000000000000000 
  0.000000000000000   0.000000000000000   0.000000000000000 
# Symm. op. 2
 -1.000000000000000   0.000000000000000   0.000000000000000 
  0.000000000000000   1.000000000000000   0.000000000000000 
  0.000000000000000   0.000000000000000  -1.000000000000000 
  0.000000000000000   0.000000000000000   0.000000000000000 
# Symm. op. 3
  1.000000000000000   0.000000000000000   0.000000000000000 
  0.000000000000000  -1.000000000000000   0.000000000000000 
  0.000000000000000   0.000000000000000  -1.000000000000000 
  0.000000000000000   0.000000000000000   0.000000000000000 
# Symm. op. 4
 -1.000000000000000   0.000000000000000   0.000000000000000 
  0.000000000000000  -1.000000000000000   0.000000000000000 
  0.000000000000000   0.000000000000000   1.000000000000000 
  0.000000000000000   0.000000000000000   0.000000000000000 
# Symm. op. 5
  0.000000000000000   1.000000000000000   0.000000000000000 
  0.000000000000000   0.000000000000000   1.000000000000000 
  1.000000000000000   0.000000000000000   0.000000000000000 
  0.000000000000000   0.000000000000000   0.000000000000000 
# Symm. op. 6
  0.000000000000000   0.000000000000000  -1.000000000000000 
  1.000000000000000   0.000000000000000   0.000000000000000 
  0.000000000000000  -1.000000000000000   0.000000000000000 
  0.000000000000000   0.000000000000000   0.000000000000000 
# Symm. op. 7
  0.000000000000000   1.000000000000000   0.000000000000000 
  0.000000000000000   0.000000000000000  -1.000000000000000 
 -1.000000000000000   0.000000000000000   0.000000000000000 
  0.000000000000000   0.000000000000000   0.000000000000000 
# Symm. op. 8
  0.000000000000000   0.000000000000000  -1.000000000000000 
 -1.000000000000000   0.000000000000000   0.000000000000000 
  0.000000000000000   1.000000000000000   0.000000000000000 
  0.000000000000000   0.000000000000000   0.000000000000000 
# Symm. op. 9
  0.000000000000000   1.000000000000000   0.000000000000000 
  1.000000000000000   0.000000000000000   0.000000000000000 
  0.000000000000000   0.000000000000000   1.000000000000000 
  0.000000000000000   0.000000000000000   0.000000000000000 
# Symm. op. 10
 -1.000000000000000   0.000000000000000   0.000000000000000 
  0.000000000000000   0.000000000000000   1.000000000000000 
  0.000000000000000  -1.000000000000000   0.000000000000000 
  0.000000000000000   0.000000000000000   0.000000000000000 
# Symm. op. 11
 -1.000000000000000   0.000000000000000   0.000000000000000 
  0.000000000000000   0.000000000000000  -1.000000000000000 
  0.000000000000000   1.000000000000000   0.000000000000000 
  0.000000000000000   0.000000000000000   0.000000000000000 
# Symm. op. 12
  1.000000000000000   0.000000000000000   0.000000000000000 
  0.000000000000000   0.000000000000000   1.000000000000000 
  0.000000000000000   1.000000000000000   0.000000000000000 
  0.000000000000000   0.000000000000000   0.000000000000000 
# Symm. op. 13
  0.000000000000000   1.000000000000000   0.000000000000000 
 -1.000000000000000   0.000000000000000   0.000000000000000 
  0.000000000000000   0.000000000000000  -1.000000000000000 
  0.000000000000000   0.000000000000000   0.000000000000000 
# Symm. op. 14
  0.000000000000000   0.000000000000000   1.000000000000000 
  0.000000000000000  -1.000000000000000   0.000000000000000 
 -1.000000000000000   0.000000000000000   0.000000000000000 
  0.000000000000000   0.000000000000000   0.000000000000000 
# Symm. op. 15
  0.000000000000000  -1.000000000000000   0.000000000000000 
  0.000000000000000   0.000000000000000  -1.000000000000000 
  1.000000000000000   0.000000000000000   0.000000000000000 
  0.000000000000000   0.000000000000000   0.000000000000000 
# Symm. op. 16
  0.000000000000000  -1.000000000000000   0.000000000000000 
  1.000000000000000   0.000000000000000   0.000000000000000 
  0.000000000000000   0.000000000000000  -1.000000000000000 
  0.000000000000000   0.000000000000000   0.000000000000000 
# Symm. op. 17
  1.000000000000000   0.000000000000000   0.000000000000000 
  0.000000000000000   0.000000000000000  -1.000000000000000 
  0.000000000000000  -1.000000000000000   0.000000000000000 
  0.000000000000000   0.000000000000000   0.000000000000000 
# Symm. op. 18
  0.000000000000000   0.000000000000000   1.000000000000000 
 -1.000000000000000   0.000000000000000   0.000000000000000 
  0.000000000000000  -1.000000000000000   0.000000000000000 
  0.000000000000000   0.000000000000000   0.000000000000000 
# Symm. op. 19
  0.000000000000000   0.000000000000000   1.000000000000000 
  0.000000000000000   1.000000000000000   0.000000000000000 
  1.000000000000000   0.000000000000000   0.000000000000000 
  0.000000000000000   0.000000000000000   0.000000000000000 
# Symm. op. 20
  0.000000000000000   0.000000000000000   1.000000000000000 
  1.000000000000000   0.000000000000000   0.000000000000000 
  0.000000000000000   1.000000000000000   0.000000000000000 
  0.000000000000000   0.000000000000000   0.000000000000000 
# Symm. op. 21
  0.000000000000000   0.000000000000000  -1.000000000000000 
  0.000000000000000  -1.000000000000000   0.000000000000000 
  1.000000000000000   0.000000000000000   0.000000000000000 
  0.000000000000000   0.000000000000000   0.000000000000000 
# Symm. op. 22
  0.000000000000000  -1.000000000000000   0.000000000000000 
  0.000000000000000   0.000000000000000   1.000000000000000 
 -1.000000000000000   0.000000000000000   0.000000000000000 
  0.000000000000000   0.000000000000000   0.000000000000000 
# Symm. op. 23
  0.000000000000000  -1.000000000000000   0.000000000000000 
 -1.000000000000000   0.000000000000000   0.000000000000000 
  0.000000000000000   0.000000000000000   1.000000000000000 
  0.000000000000000   0.000000000000000   0.000000000000000 
# Symm. op. 24
  0.000000000000000   0.000000000000000  -1.000000000000000 
  0.000000000000000   1.000000000000000   0.000000000000000 
 -1.000000000000000   0.000000000000000   0.000000000000000 
  0.000000000000000   0.000000000000000   0.000000000000000 
%ENDBLOCK SYMMETRY_OPS
