#************************************************************************************
#*                   Generated by cif2cell 1.1.5 2014-07-05 11:52                   *
#*  T. Bjorkman, Comp. Phys. Commun. 182, 1183-1186 (2011). Please cite generously. *
#*                                                                                  *
#*                Data obtained from COD. Reference number : 9009125                *
#*                                 Cd Cl2   (CdCl2)                                 *
#*             Wyckoff, R. W. G., Crystal Structures 1, 239-444 (1963)              *
#************************************************************************************
# Structural parameters
acell    3*7.275445485  

rprim    0.866025403784439  -0.500000000000000   0.000000000000000 
         0.000000000000000   1.000000000000000   0.000000000000000 
         0.000000000000000   0.000000000000000   4.535064935064935 
       
natom    9  
ntypat   2  
typat    1 1 1 2 2 2 2 2 2  
znucl    48 17  
xred     0.000000000000000   0.000000000000000   0.000000000000000 
         0.333333333333333   0.666666666666667   0.666666666666667 
         0.666666666666667   0.333333333333333   0.333333333333333 
         0.000000000000000   0.000000000000000   0.250000000000000 
         0.333333333333333   0.666666666666667   0.416666666666667 
         0.666666666666667   0.333333333333333   0.083333333333333 
         0.000000000000000   0.000000000000000   0.750000000000000 
         0.333333333333333   0.666666666666667   0.916666666666667 
         0.666666666666667   0.333333333333333   0.583333333333333 
      
