#************************************************************************************
#*                   Generated by cif2cell 1.1.5 2014-07-05 11:52                   *
#*  T. Bjorkman, Comp. Phys. Commun. 182, 1183-1186 (2011). Please cite generously. *
#*                                                                                  *
#*                Data obtained from COD. Reference number : 9009138                *
#*                                  Cd I2   (CdI2)                                  *
#*             Wyckoff, R. W. G., Crystal Structures 1, 239-444 (1963)              *
#************************************************************************************
# Structural parameters
acell    3*8.012438664  

rprim    0.866025403784439  -0.500000000000000   0.000000000000000 
         0.000000000000000   1.000000000000000   0.000000000000000 
         0.000000000000000   0.000000000000000   3.224056603773585 
       
natom    6  
ntypat   2  
typat    1 1 1 1 2 2  
znucl    53 48  
xred     0.333333333333333   0.666666666666667   0.375000000000000 
         0.666666666666667   0.333333333333333   0.875000000000000 
         0.000000000000000   0.000000000000000   0.625000000000000 
         0.000000000000000   0.000000000000000   0.125000000000000 
         0.333333333333333   0.666666666666667   0.000000000000000 
         0.666666666666667   0.333333333333333   0.500000000000000 
      
