#************************************************************************************
#*                   Generated by cif2cell 1.1.5 2014-07-05 11:52                   *
#*  T. Bjorkman, Comp. Phys. Commun. 182, 1183-1186 (2011). Please cite generously. *
#*                                                                                  *
#*                Data obtained from COD. Reference number : 9009085                *
#*                                 Cl2 Cr   (CrCl2)                                 *
#*             Wyckoff, R. W. G., Crystal Structures 1, 239-444 (1963)              *
#************************************************************************************
# Structural parameters
acell    3*11.2892237214  

rprim    1.000000000000000   0.000000000000000   0.000000000000000 
         0.000000000000000   1.108804820890525   0.000000000000000 
         0.000000000000000   0.000000000000000   0.583863408101774 
       
natom    6  
ntypat   2  
typat    1 1 2 2 2 2  
znucl    24 17  
xred     0.000000000000000   0.000000000000000   0.000000000000000 
         0.500000000000000   0.500000000000000   0.500000000000000 
         0.278000000000000   0.362000000000000   0.000000000000000 
         0.722000000000000   0.638000000000000   0.000000000000000 
         0.222000000000000   0.862000000000000   0.500000000000000 
         0.778000000000000   0.138000000000000   0.500000000000000 
      
