#************************************************************************************
#*                   Generated by cif2cell 1.1.5 2014-07-05 11:52                   *
#*  T. Bjorkman, Comp. Phys. Commun. 182, 1183-1186 (2011). Please cite generously. *
#*                                                                                  *
#*                Data obtained from COD. Reference number : 9009176                *
#*                              Cl F Pb   (Matlockite)                              *
#*             Wyckoff, R. W. G., Crystal Structures 1, 294-296 (1963)              *
#************************************************************************************
# Structural parameters
acell    3*7.7592153666  

rprim    1.000000000000000   0.000000000000000   0.000000000000000 
         0.000000000000000   1.000000000000000   0.000000000000000 
         0.000000000000000   0.000000000000000   1.760837798343887 
       
natom    6  
ntypat   3  
typat    1 1 2 2 3 3  
znucl    82 17 9  
xred     0.000000000000000   0.500000000000000   0.200000000000000 
         0.500000000000000   0.000000000000000   0.800000000000000 
         0.000000000000000   0.500000000000000   0.650000000000000 
         0.500000000000000   0.000000000000000   0.350000000000000 
         0.000000000000000   0.000000000000000   0.000000000000000 
         0.500000000000000   0.500000000000000   0.000000000000000 
      
