#************************************************************************************
#*                   Generated by cif2cell 1.1.5 2014-07-05 11:52                   *
#*  T. Bjorkman, Comp. Phys. Commun. 182, 1183-1186 (2011). Please cite generously. *
#*                                                                                  *
#*                Data obtained from COD. Reference number : 9008978                *
#*                                Cl Hg   (Calomel)                                 *
#*              Wyckoff, R. W. G., Crystal Structures 1, 85-237 (1963)              *
#************************************************************************************
# Structural parameters
acell    3*8.4621934758  

rprim    1.000000000000000   0.000000000000000   0.000000000000000 
         0.000000000000000   1.000000000000000   0.000000000000000 
         0.000000000000000   0.000000000000000   2.436355515855293 
       
natom    8  
ntypat   2  
typat    1 1 1 1 2 2 2 2  
znucl    80 17  
xred     0.000000000000000   0.000000000000000   0.116000000000000 
         0.000000000000000   0.000000000000000   0.884000000000000 
         0.500000000000000   0.500000000000000   0.384000000000000 
         0.500000000000000   0.500000000000000   0.616000000000000 
         0.000000000000000   0.000000000000000   0.347000000000000 
         0.000000000000000   0.000000000000000   0.653000000000000 
         0.500000000000000   0.500000000000000   0.153000000000000 
         0.500000000000000   0.500000000000000   0.847000000000000 
      
