#************************************************************************************
#*                   Generated by cif2cell 1.1.5 2014-07-05 11:52                   *
#*  T. Bjorkman, Comp. Phys. Commun. 182, 1183-1186 (2011). Please cite generously. *
#*                                                                                  *
#*                Data obtained from COD. Reference number : 9008678                *
#*                                 Cl Na   (Halite)                                 *
#*              Wyckoff, R. W. G., Crystal Structures 1, 85-237 (1963)              *
#************************************************************************************
# Structural parameters
acell    3*10.6591134506  

rprim    1.000000000000000   0.000000000000000   0.000000000000000 
         0.000000000000000   1.000000000000000   0.000000000000000 
         0.000000000000000   0.000000000000000   1.000000000000000 
       
natom    8  
ntypat   2  
typat    1 1 1 1 2 2 2 2  
znucl    17 11  
xred     0.500000000000000   0.500000000000000   0.500000000000000 
         0.500000000000000   0.000000000000000   0.000000000000000 
         0.000000000000000   0.500000000000000   0.000000000000000 
         0.000000000000000   0.000000000000000   0.500000000000000 
         0.000000000000000   0.000000000000000   0.000000000000000 
         0.000000000000000   0.500000000000000   0.500000000000000 
         0.500000000000000   0.000000000000000   0.500000000000000 
         0.500000000000000   0.500000000000000   0.000000000000000 
      
