#**********************************************************************************************************************************
#*                                          Generated by cif2cell 1.1.5 2014-07-05 11:52                                          *
#*                         T. Bjorkman, Comp. Phys. Commun. 182, 1183-1186 (2011). Please cite generously.                        *
#*                                                                                                                                *
#*                                       Data obtained from COD. Reference number : 1010575                                       *
#*                                                  Cr Cl3   (Chromium chloride)                                                  *
#* Wooster, N, Zeitschrift fuer Kristallographie, Kristallgeometrie, Kristallphysik,Kristallchemie (-144,1977) 74, 363-374 (1930) *
#**********************************************************************************************************************************
# Structural parameters
acell    3*11.3704819437  

rprim    0.866025403784439  -0.500000000000000   0.000000000000000 
         0.000000000000000   1.000000000000000   0.000000000000000 
         0.000000000000000   0.000000000000000   2.875186970250955 
       
natom    24  
ntypat   2  
typat    1 1 1 1 1 1 2 2 2 2 2 2 2 2 2 2 2 2 2 2 2 2 2 2  
znucl    24 17  
xred     0.222200000000000   0.111100000000000   0.000000000000000 
         0.888900000000000   0.777800000000000   0.333333333333333 
         0.888900000000000   0.111100000000000   0.666666666666667 
         0.888900000000000   0.444400000000000   0.000000000000000 
         0.555500000000000   0.111100000000000   0.333333333333333 
         0.555500000000000   0.444400000000000   0.666666666666667 
         0.888900000000000   0.111100000000000   0.073100000000000 
         0.222200000000000   0.111100000000000   0.406433333333333 
         0.222200000000000   0.111100000000000   0.593566666666667 
         0.888900000000000   0.777800000000000   0.926900000000000 
         0.888900000000000   0.777800000000000   0.739766666666667 
         0.888900000000000   0.111100000000000   0.260233333333333 
         0.555600000000000   0.444400000000000   0.073100000000000 
         0.888800000000000   0.444400000000000   0.406433333333333 
         0.888800000000000   0.444400000000000   0.593566666666667 
         0.555600000000000   0.111200000000000   0.926900000000000 
         0.555600000000000   0.111200000000000   0.739766666666667 
         0.555600000000000   0.444400000000000   0.260233333333333 
         0.222200000000000   0.777800000000000   0.073100000000000 
         0.555600000000000   0.777800000000000   0.406433333333333 
         0.555600000000000   0.777800000000000   0.593566666666667 
         0.222200000000000   0.444400000000000   0.926900000000000 
         0.222200000000000   0.444400000000000   0.739766666666667 
         0.222200000000000   0.777800000000000   0.260233333333333 
      
