#************************************************************************************
#*                   Generated by cif2cell 1.1.5 2014-07-05 11:52                   *
#*  T. Bjorkman, Comp. Phys. Commun. 182, 1183-1186 (2011). Please cite generously. *
#*                                                                                  *
#*                Data obtained from COD. Reference number : 9008875                *
#*                               C Si   (Moissanite)                                *
#*              Wyckoff, R. W. G., Crystal Structures 1, 85-237 (1963)              *
#************************************************************************************
# Structural parameters
acell    3*5.8127974836  

rprim    0.866025403784439  -0.500000000000000   0.000000000000000 
         0.000000000000000   1.000000000000000   0.000000000000000 
         0.000000000000000   0.000000000000000   1.641092327698309 
       
natom    4  
ntypat   2  
typat    1 1 2 2  
znucl    14 6  
xred     0.333333333333333   0.666666666666667   0.000000000000000 
         0.666666666666667   0.333333333333333   0.500000000000000 
         0.333333333333333   0.666666666666667   0.385000000000000 
         0.666666666666667   0.333333333333333   0.885000000000000 
      
