#************************************************************************************
#*                   Generated by cif2cell 1.1.5 2014-07-05 11:52                   *
#*  T. Bjorkman, Comp. Phys. Commun. 182, 1183-1186 (2011). Please cite generously. *
#*                                                                                  *
#*                Data obtained from COD. Reference number : 9007456                *
#*                                    C W   (WC)                                    *
#*            Leciejewicz, J., Acta Crystallographica 14, 200-200 (1961)            *
#************************************************************************************
# Structural parameters
acell    3*5.49248890965  

rprim    0.866025403784439  -0.500000000000000   0.000000000000000 
         0.000000000000000   1.000000000000000   0.000000000000000 
         0.000000000000000   0.000000000000000   0.975950455874763 
       
natom    2  
ntypat   2  
typat    1 2  
znucl    74 6  
xred     0.000000000000000   0.000000000000000   0.000000000000000 
         0.666666666666667   0.333333333333333   0.500000000000000 
      
