#************************************************************************************************
#*                         Generated by cif2cell 1.1.5 2014-07-05 11:52                         *
#*        T. Bjorkman, Comp. Phys. Commun. 182, 1183-1186 (2011). Please cite generously.       *
#*                                                                                              *
#*                      Data obtained from COD. Reference number : 5910097                      *
#*                                      FeCl3   (molysite)                                      *
#* Wyckoff, R. W. G., The second edition supplement of The Structure of Crystals , 38-38 (1935) *
#************************************************************************************************
# Structural parameters
acell    3*12.642267609  

rprim    0.866025403784439  -0.500000000000000   0.000000000000000 
         0.000000000000000   1.000000000000000   0.000000000000000 
         0.000000000000000   0.000000000000000   1.000000000000000 
       
natom    36  
ntypat   2  
typat    1 1 1 1 1 1 1 1 1 1 1 1 1 1 1 1 1 1 2 2 2 2 2 2 2 2 2 2 2 2 2 2 2 2 2 2  
znucl    26 17  
xred     0.333333333333333   0.333333333333333   0.333333333333333 
         0.000000000000000   0.333333333333333   0.666666666666667 
         0.000000000000000   0.333333333333333   0.000000000000000 
         0.000000000000000   0.666666666666667   0.000000000000000 
         0.333333333333333   0.333333333333333   0.000000000000000 
         0.333333333333333   0.000000000000000   0.000000000000000 
         0.333333333333333   0.000000000000000   0.666666666666667 
         0.000000000000000   0.666666666666667   0.666666666666667 
         0.333333333333333   0.333333333333333   0.666666666666667 
         0.666666666666667   0.000000000000000   0.000000000000000 
         0.666666666666667   0.000000000000000   0.666666666666667 
         0.000000000000000   0.666666666666667   0.333333333333333 
         0.666666666666667   0.000000000000000   0.333333333333333 
         0.666666666666667   0.666666666666667   0.666666666666667 
         0.666666666666667   0.666666666666667   0.333333333333333 
         0.666666666666667   0.666666666666667   0.000000000000000 
         0.000000000000000   0.333333333333333   0.333333333333333 
         0.333333333333333   0.000000000000000   0.333333333333333 
         0.744000000000000   0.410000000000000   0.077000000000000 
         0.334000000000000   0.744000000000000   0.923000000000000 
         0.076666666666667   0.999333333333333   0.256333333333333 
         0.923333333333333   0.000666666666667   0.743666666666667 
         0.999333333333333   0.922666666666667   0.743666666666667 
         0.922666666666667   0.923333333333333   0.256333333333333 
         0.410000000000000   0.666000000000000   0.923000000000000 
         0.410666666666667   0.743333333333333   0.410333333333333 
         0.256666666666667   0.667333333333333   0.410333333333333 
         0.077333333333333   0.076666666666667   0.743666666666667 
         0.332666666666667   0.589333333333333   0.410333333333333 
         0.666000000000000   0.256000000000000   0.077000000000000 
         0.590000000000000   0.334000000000000   0.077000000000000 
         0.256000000000000   0.590000000000000   0.923000000000000 
         0.743333333333333   0.332666666666667   0.589666666666667 
         0.000666666666667   0.077333333333333   0.256333333333333 
         0.589333333333333   0.256666666666667   0.589666666666667 
         0.667333333333333   0.410666666666667   0.589666666666667 
      
