#************************************************************************************
#*                   Generated by cif2cell 1.1.5 2014-07-05 13:44                   *
#*  T. Bjorkman, Comp. Phys. Commun. 182, 1183-1186 (2011). Please cite generously. *
#*                                                                                  *
#*                            Fe Si2 O6 H   (Nontronite)                            *
#*      Dainyak L G et al., European Journal of Mineralogy 18, 753-764 (2006)       *
#************************************************************************************

%BLOCK LATTICE_CART
ang    # angstrom units
   2.638500000000000  -4.570000000000000   0.000000000000000
   2.638500000000000   4.570016055770482   0.000000000000000
  -1.866111974782608   0.000000000000000   9.600313854118154
%ENDBLOCK LATTICE_CART

%BLOCK POSITIONS_FRAC
Fem   0.333333333333333   0.666666666666667   0.000000000000000 
Fem   0.666666666666667   0.333333333333333   0.000000000000000 
Sit   0.981000000000000   0.639200000000000   0.284100000000000 
Sit   0.019000000000000   0.360800000000000   0.715900000000000 
Sit   0.360800000000000   0.019000000000000   0.715900000000000 
Sit   0.639200000000000   0.981000000000000   0.284100000000000 
O    0.997200000000000   0.621600000000000   0.114800000000000 
O    0.002800000000000   0.378400000000000   0.885200000000000 
O    0.378400000000000   0.002800000000000   0.885200000000000 
O    0.621600000000000   0.997200000000000   0.114800000000000 
O    0.809400000000000   0.809400000000000   0.329300000000000 
O    0.190600000000000   0.190600000000000   0.670700000000000 
O    0.309300000000000   0.809300000000000   0.348000000000000 
O    0.690700000000000   0.190700000000000   0.652000000000000 
O    0.190700000000000   0.690700000000000   0.652000000000000 
O    0.809300000000000   0.309300000000000   0.348000000000000 
O-h   0.374100000000000   0.374100000000000   0.107500000000000 
O-h   0.625900000000000   0.625900000000000   0.892500000000000 
%ENDBLOCK POSITIONS_FRAC

# Commented out pseudopotential block for easy editing
#%BLOCK SPECIES_POT
# O-h  O-h_00.usp
# Fem  Fem_00.usp
# O   O_00.usp
# Sit  Sit_00.usp
#%ENDBLOCK SPECIES_POT

%BLOCK SYMMETRY_OPS
# Symm. op. 1
 -1.000000000000000   0.000000000000000   0.000000000000000 
  0.000000000000000  -1.000000000000000   0.000000000000000 
  0.000000000000000   0.000000000000000  -1.000000000000000 
  0.000000000000000   0.000000000000000   0.000000000000000 
# Symm. op. 2
 -1.000000000000000   0.000000000000000   0.000000000000000 
  0.000000000000000   1.000000000000000   0.000000000000000 
  0.000000000000000  -0.000000000000000  -1.000000000000000 
  0.000000000000000   0.000000000000000   0.000000000000000 
# Symm. op. 3
  1.000000000000000   0.000000000000000   0.000000000000000 
 -0.000000000000000  -1.000000000000000   0.000000000000000 
  0.000000000000000   0.000000000000000   1.000000000000000 
  0.000000000000000   0.000000000000000   0.000000000000000 
# Symm. op. 4
  1.000000000000000   0.000000000000000   0.000000000000000 
  0.000000000000000   1.000000000000000   0.000000000000000 
  0.000000000000000   0.000000000000000   1.000000000000000 
  0.000000000000000   0.000000000000000   0.000000000000000 
%ENDBLOCK SYMMETRY_OPS
