#************************************************************************************
#*                   Generated by cif2cell 1.1.5 2014-07-05 11:52                   *
#*  T. Bjorkman, Comp. Phys. Commun. 182, 1183-1186 (2011). Please cite generously. *
#*                                                                                  *
#*                Data obtained from COD. Reference number : 2101439                *
#*                                  H2 Mg O2   ()                                   *
#*     Desgranges, L. et al., Acta Crystallographica Section B 52, 82-86 (1996)     *
#************************************************************************************
# Structural parameters
acell    3*5.9431885845  

rprim    0.866025403784439  -0.500000000000000   0.000000000000000 
         0.000000000000000   1.000000000000000   0.000000000000000 
         0.000000000000000   0.000000000000000   1.507154213036566 
       
natom    9  
ntypat   3  
typat    1 2 2 3 3 3 3 3 3  
znucl    12 8 1  
xred     0.000000000000000   0.000000000000000   0.000000000000000 
         0.333333333333333   0.666666666666667   0.780600000000000 
         0.666666666666667   0.333333333333333   0.219400000000000 
         0.356900000000000   0.643100000000000   0.580500000000000 
         0.643100000000000   0.356900000000000   0.419500000000000 
         0.356900000000000   0.713800000000000   0.580500000000000 
         0.713800000000000   0.356900000000000   0.419500000000000 
         0.286200000000000   0.643100000000000   0.580500000000000 
         0.643100000000000   0.286200000000000   0.419500000000000 
      
