#******************************************************************************************************************************
#*                                        Generated by cif2cell 1.1.5 2014-07-05 11:52                                        *
#*                       T. Bjorkman, Comp. Phys. Commun. 182, 1183-1186 (2011). Please cite generously.                      *
#*                                                                                                                            *
#*                                     Data obtained from COD. Reference number : 1011053                                     *
#*                                               Si C   (Silicon carbide - II.)                                               *
#* Ott, H, Zeitschrift fuer Kristallographie, Kristallgeometrie, Kristallphysik,Kristallchemie (-144,1977) 61, 515-531 (1925) *
#******************************************************************************************************************************
# Structural parameters
acell    3*5.8487022795  

rprim    0.866025403784439  -0.500000000000000   0.000000000000000 
         0.000000000000000   1.000000000000000   0.000000000000000 
         0.000000000000000   0.000000000000000   4.901453957996769 
       
natom    12  
ntypat   2  
typat    1 1 1 1 1 1 2 2 2 2 2 2  
znucl    14 6  
xred     0.000000000000000   0.000000000000000   0.125000000000000 
         0.000000000000000   0.000000000000000   0.625000000000000 
         0.333333333333333   0.666666666666667   0.291700000000000 
         0.666666666666667   0.333333333333333   0.791700000000000 
         0.333333333333333   0.666666666666667   0.958300000000000 
         0.666666666666667   0.333333333333333   0.458300000000000 
         0.000000000000000   0.000000000000000   0.000000000000000 
         0.000000000000000   0.000000000000000   0.500000000000000 
         0.333333333333333   0.666666666666667   0.166666666666667 
         0.666666666666667   0.333333333333333   0.666666666666667 
         0.333333333333333   0.666666666666667   0.833333333333333 
         0.666666666666667   0.333333333333333   0.333333333333333 
      
