#************************************************************************************
#*                   Generated by cif2cell 1.1.5 2014-07-05 11:52                   *
#*  T. Bjorkman, Comp. Phys. Commun. 182, 1183-1186 (2011). Please cite generously. *
#*                                                                                  *
#*                Data obtained from COD. Reference number : 5910041                *
#*                                     W2C   ()                                     *
#* Wyckoff, R. W. G., The second edition of Structure of Crystals , 239-239 (1931)  *
#************************************************************************************
# Structural parameters
acell    3*5.650281039  

rprim    0.866025403784439  -0.500000000000000   0.000000000000000 
         0.000000000000000   1.000000000000000   0.000000000000000 
         0.000000000000000   0.000000000000000   1.578595317725752 
       
natom    3  
ntypat   2  
typat    1 2 2  
znucl    6 74  
xred     0.000000000000000   0.000000000000000   0.000000000000000 
         0.333333333333333   0.666666666666667   0.250000000000000 
         0.666666666666667   0.333333333333333   0.750000000000000 
      
