%nprocshared=2
%mem=1GB
%chk=o2_triplet.chk
#p opt=calcfc freq b3lyp/6-31g(d,p) geom=connectivity

Title Card Required

0 3
 O                  0.00000000    0.00000000    0.60799400
 O                  0.00000000    0.00000000   -0.60799400

 1 2 1.5
 2

