%nproc=24
%mem=30GB
%chk=pt-cl-cl.chk
#p opt=(calcall, ts, noeigen) b3lyp/def2tzvp em=gd3bj scrf=(smd,solvent=water) geom=connectivity

Title Card Required

0 1
 Pt                -0.51724137    0.27093596    0.00000000
 N                 -1.51224137    1.99432651    0.00000000
 H                 -0.99284005    2.67910318   -0.51117823
 H                 -2.40532570    1.86360421   -0.43047887
 Cl                -0.51724137    0.27093596   -2.28000000
 O                  1.43275863    0.27093596    0.00000000
 H                  1.75275863    1.17592228    0.01413322
 H                  1.75275863   -0.16931748   -0.79080775
 N                 -1.51224137   -1.45245460    0.00000000
 H                 -0.97654275   -2.14664052    0.48076283
 H                 -2.39066280   -1.33019793    0.46198387
 Cl                -0.51724137    0.27093596    2.28000000
 H                 -1.63855836    2.30629754    0.94165710
 H                 -1.66951855   -1.74655076   -0.94274670

 1 2 1.0 5 1.0 6 1.0 9 1.0 12 1.0
 2 3 1.0 4 1.0 13 1.0
 3
 4
 5
 6 7 1.0 8 1.0
 7
 8
 9 10 1.0 11 1.0 14 1.0
 10
 11
 12
 13
 14

