%nproc=20
%mem=30GB
%chk=pt-n-o-ts-81.chk
#p opt=(calcall,ts,noeigen) freq b3lyp/def2tzvp em=gd3bj

Generated from Sexy Viewer

0 1
Pt -0.35924407142857157 -0.03689071428571427 0.1591125714285714
Cl -2.410686071428571 -1.7851767142857144 -0.13076242857142859
Cl -2.2420010714285716 1.8229002857142858 0.6223405714285714
N -0.4011180714285715 -0.05255771428571428 -1.8607384285714288
H -0.7119630714285715 0.8471872857142856 -2.2218894285714286
H 0.4887479285714285 -0.27628071428571427 -2.3013034285714284
O -0.4806550714285713 0.0030622857142857274 2.2607925714285715
H 0.32486692857142857 0.3177792857142857 2.6994265714285715
H -1.1401180714285712 0.7246792857142857 2.3516915714285718
N 1.7298549285714286 -0.18147071428571424 0.13973257142857137
H 2.0251809285714284 -1.1365007142857144 -0.046366428571428586
H 2.1381849285714285 0.4162882857142857 -0.5747304285714286
H 2.1232229285714284 0.09720228571428573 1.0351085714285715
H -1.084273071428571 -0.7602217142857144 -2.1324144285714284



