%nproc=24
%mem=30GB
%chk=pt-n-cl.chk
#p opt=(calcall, ts, noeigen) b3lyp/def2tzvp em=gd3bj scrf=(smd,solvent=water) geom=connectivity

Title Card Required

0 1
 Pt                 0.61576353    0.36933152   -0.00967125
 N                  0.61576353    0.36933152    1.98032875
 H                  1.08716841   -0.44716485    2.31366208
 H                  1.08716769    1.18582831    2.31366208
 N                 -0.37923647    2.09272207   -0.00967125
 H                  0.14016485    2.77749874   -0.52084948
 H                 -1.27232080    1.96199977   -0.44015012
 Cl                -0.52423647   -1.60520640   -0.00967125
 Cl                 0.61576353    0.36933152   -2.28967125
 O                  2.56576353    0.36933152   -0.00967125
 H                  2.88576353    1.27431784    0.00446197
 H                  2.88576353   -0.07092192   -0.80047900
 H                 -0.32704551    0.36933111    2.31366208
 H                 -0.50555346    2.40469310    0.93198585

 1 2 1.0 5 1.0 8 1.0 9 1.0 10 1.0
 2 3 1.0 4 1.0 13 1.0
 3
 4
 5 6 1.0 7 1.0 14 1.0
 6
 7
 8
 9
 10 11 1.0 12 1.0
 11
 12
 13
 14

